5
4
20
1 1.3 1.55 1.75 2.1
36 32 10 29 27 32 30 20 35 30 7 32 22 9 32 10 26 23 41 10 20 7 42 18 9 29 16 39 46 33 34 7 12 9 46 40 18 35 37 10 34 49 40 19 13 6 14 27 11 26 9 21 34 23 36 17 26 16 23 24 23 8 17 25 22 9 14 9 19 42 9 29 35 18 32 16 36 27 31 24 